N, rs=1.20                              
    8.821421491342459     
     1.0000000000000000    0.0000000000000000    0.0000000000000000
     0.0000000000000000    1.0000000000000000    0.0000000000000000
     0.0000000000000000    0.0000000000000000    1.0000000000000000
 128
Direct
  0.0858223324750107  0.9666997322153780  0.8042108919907803
  0.7538655383973892  0.3304152796827733  0.6167653139701089
  0.3642260341520380  0.6458345723315029  0.1313199445000268
  0.4462354686376286  0.3406861945607444  0.5540203624223551
  0.7324983598590196  0.3498477670500866  0.8536313683712948
  0.9121939521403831  0.4127618199921282  0.6899170362136506
  0.0277296854807649  0.3551060531585614  0.2109817063738600
  0.1768584529849342  0.9545104607989073  0.9847811198499856
  0.7917479901898530  0.4836059833790651  0.1362077470538508
  0.6770950212291610  0.4918708142296753  0.8639369335884384
  0.4447411324547135  0.9314449802040556  0.2886598891511705
  0.1729966291316960  0.5849449478951022  0.5824955641372082
  0.2190717536722959  0.7448264648797985  0.3524669412558332
  0.6594913702905352  0.4203830364796939  0.6017055576272270
  0.3968812873091228  0.5674151916188520  0.6873499090035876
  0.0192007591762278  0.8529876372198676  0.2313008777909600
  0.8869480334052788  0.0625891713443007  0.9651087692263641
  0.2022934554513950  0.7519831605794960  0.9209090531287502
  0.9079990242206135  0.2969250940965618  0.4290463670877714
  0.2920388911625313  0.1320399299175017  0.2313579212847537
  0.1942928555444503  0.1192258501367601  0.6886977964856311
  0.6155450319155791  0.2307338160572859  0.8196089590754150
  0.7159834428420518  0.0907098975906797  0.2377598179532209
  0.4951882652209149  0.6273801941003095  0.2019925478207752
  0.0811930682833176  0.3596796304849668  0.5525029273071850
  0.2760877105595496  0.9930403150338457  0.6904459293888623
  0.3353529413954126  0.9565059032903828  0.5763436590016465
  0.6720529776836217  0.5699002275922058  0.5685752256066233
  0.9328693858130807  0.8509003500551714  0.0274507871047256
  0.6142241643656983  0.2948600537071441  0.0731466222742198
  0.8454005467158663  0.1851768753954191  0.0268133462893031
  0.2412511819526146  0.8919073143418225  0.1304048723448456
  0.8191909077248914  0.8392876692353617  0.6298421151989272
  0.3683564419686002  0.5568259815791876  0.4350615402478784
  0.5111418496107094  0.2702214553236276  0.9564065431877912
  0.5188812751014834  0.8667609761887577  0.3776229231258574
  0.0623909098501841  0.6634646789620741  0.5660681354347440
  0.2638791623063541  0.7598983882258056  0.2343481904564697
  0.0237101367219295  0.8344711378266647  0.7543422350963881
  0.8555077487841698  0.7453732287552235  0.5440233071232620
  0.2281465475867427  0.7290631742595263  0.7805760558063124
  0.7010084096347251  0.9117076753347394  0.4585178170219862
  0.4669278428634461  0.4649326276389490  0.7739252248191437
  0.4718128826694151  0.0336628635906053  0.0887315658125915
  0.2686199182503652  0.2471209415067555  0.8537572909623763
  0.7145672051845937  0.1785827386015961  0.0919821683264424
  0.5134200712221439  0.2537729799078597  0.6558989483862487
  0.5635045106107870  0.8579529159013273  0.6773249504005806
  0.4843158187209169  0.0495430234298796  0.9433044137360564
  0.8217827161629346  0.6200350448585443  0.7796644062890637
  0.2979556422543349  0.4810003165502054  0.0077918028317772
  0.0781494986823410  0.0755983554221945  0.1287598396379107
  0.4675756197408534  0.4904854033484097  0.2193931635765072
  0.5892847995473492  0.5773752715790412  0.9834529454226947
  0.9897805450933980  0.0537535282607680  0.3691159255139150
  0.2713224248376502  0.1124036718024258  0.3901490140398669
  0.2473566031756150  0.5015607242111233  0.4598693427464349
  0.3275613725144876  0.7033076894420335  0.4763333010712002
  0.5443796620724225  0.1462514171820566  0.4224167047885134
  0.1417539707766105  0.7027418000868279  0.0320430797598772
  0.9657077729827975  0.2826736226568202  0.7376212584141413
  0.4270092728513353  0.1659183905096006  0.7284708887301989
  0.7734793900216604  0.0843362543193257  0.7917160898159170
  0.0847681852041758  0.3362966260536828  0.9809513191103953
  0.3477712048077921  0.7418964239100710  0.7333615764295875
  0.2188678795066847  0.3807465634115207  0.8990877657013322
  0.7986581720573589  0.3161424492278833  0.3356486028760985
  0.1621010278323004  0.2073866454877401  0.1070005776454024
  0.0477012628075115  0.5737690499343553  0.8736337851061700
  0.2551266194621958  0.4133750189476118  0.2540183512011412
  0.4890616466938002  0.3776665650149696  0.1438085838606177
  0.8964829161331164  0.5346553350559237  0.3921066928292321
  0.7353336262305358  0.7260071222291664  0.2927343422458611
  0.2986009985213460  0.2240219638037974  0.6976630593390221
  0.7652104359395607  0.5995051002166263  0.3557218669675709
  0.7619417030111726  0.7155242602130475  0.8522706563565241
  0.6017575095927231  0.9914742215961878  0.9329888332669218
  0.8558148501845074  0.6357561370145990  0.0477686383413598
  0.7806868557697250  0.8558283553266144  0.7709975648037668
  0.7811351947385531  0.1086414846663173  0.6615913493401858
  0.6314480800288369  0.5417664679850256  0.3938212213795396
  0.7576442801621188  0.0349411108869422  0.4641023579852496
  0.9623420864633014  0.1147459467848069  0.2407454071617010
  0.0391829139411125  0.4936712246897892  0.1820098058145466
  0.9891339291277775  0.6094325761110545  0.3375798496220940
  0.8046666856669044  0.3509255726816109  0.2003539673750585
  0.0513495456072183  0.9951688272697308  0.5265984568972812
  0.4629607428017962  0.7679136882272719  0.4684757561372794
  0.0454398142866939  0.2501672952581523  0.6279639059800637
  0.1815368150927427  0.5301646326983851  0.2218396288707839
  0.7889886621010105  0.8450965904096932  0.3383702005376140
  0.2485711238289797  0.5179774231522006  0.6924701566826741
  0.6552650671196227  0.8132968538409419  0.0711395721788616
  0.9947146234812583  0.2871227825383315  0.8886320319614579
  0.0759364902405479  0.6908070922771433  0.4123089347537278
  0.5790555707680946  0.7118171118621792  0.9230554533151315
  0.8388050690487728  0.2997424909468257  0.9512492341408293
  0.3077041270016062  0.9680005188074871  0.8936235877902368
  0.1220432154240917  0.7972020948601964  0.6557465380155467
  0.8230805166235307  0.6120645424324556  0.6191780203856558
  0.5646543594417097  0.7475730423626693  0.5819957168836801
  0.2369738102231132  0.9890047310306888  0.4603649554897368
  0.5261902170898071  0.8792877236252920  0.1383214594939547
  0.1831564991178029  0.4552675988227438  0.7965160604555485
  0.4900969091519223  0.2880573795106307  0.4307149865044617
  0.9492291041429499  0.5063535112891773  0.7948007642067549
  0.1223993705526656  0.2568340273367299  0.2325275435261516
  0.5983629478938420  0.1571750204416201  0.2934744721087820
  0.7117123080506642  0.1719870059131447  0.5678980637022523
  0.5125632096245061  0.0403710099734837  0.5278548358037483
  0.0798931921412727  0.5459151626531494  0.0191366265704579
  0.1937900215069373  0.2215204599524518  0.4326295141733807
  0.8316273553098725  0.9527252084380712  0.0546373733267244
  0.8428551502624833  0.7532866843324650  0.0952693670093809
  0.1590315987703433  0.9642133994802536  0.2187157177484843
  0.9961668607411127  0.1124843151642271  0.5850455627482150
  0.9252654286386935  0.9073742154594994  0.3304242997174179
  0.2495526855676846  0.3512626098134286  0.5016811887487628
  0.6977016748848240  0.5647173535243276  0.1152422990178664
  0.4155050164226756  0.1428522405342315  0.1831819462658327
  0.5870560219822756  0.5297065278343650  0.7646826136692270
  0.0029434416348753  0.3949458448040028  0.4357969191335803
  0.5675907312388543  0.9848173106189332  0.6643572018081265
  0.3652623284731090  0.5791243827524594  0.9418618305507352
  0.6158644504974108  0.3799194974213100  0.3500444557573089
  0.9837069690684846  0.0628226469062547  0.8681930453099614
  0.2845241327992361  0.1321737122688655  0.9483928527069654
  0.4318446107237982  0.8074354359878079  0.8409923944944371

  0.30070318E-01 -0.65819373E-02  0.35588454E-02
 -0.53542193E-02 -0.14816404E-01 -0.79173450E-03
  0.76356591E-02  0.26689511E-01  0.15391262E-01
 -0.32168462E-01  0.54098748E-02 -0.82443349E-02
 -0.34335590E-02 -0.23671246E-02 -0.53516653E-02
 -0.16623554E-01  0.17808738E-02 -0.20946581E-01
 -0.13599811E-01  0.21626037E-01 -0.32654463E-02
  0.69353382E-02  0.78563495E-02  0.26086311E-02
  0.20900876E-01  0.29555774E-02  0.15527324E-01
  0.13375526E-01 -0.32570173E-02  0.18978386E-01
 -0.93639437E-02 -0.72131005E-02  0.31121806E-01
  0.72739719E-03 -0.17364334E-01  0.25648363E-01
 -0.16987372E-02  0.17408794E-01 -0.40258907E-02
  0.26174151E-02 -0.73123776E-02  0.10023918E-01
 -0.20536305E-02 -0.13128334E-01 -0.11637519E-01
 -0.16558618E-01 -0.24505034E-01  0.12007516E-02
  0.16774089E-01  0.46211265E-02  0.51700559E-02
 -0.10119337E-01 -0.85334228E-02 -0.10429029E-01
  0.17389365E-01 -0.99708704E-02 -0.15384213E-01
  0.21110934E-02 -0.19904648E-01  0.70525952E-02
  0.38691335E-02 -0.16720347E-01 -0.48987044E-02
  0.23488495E-01  0.29588574E-01  0.33950828E-01
  0.62559873E-03 -0.11840997E-01 -0.17374277E-01
 -0.90367519E-02 -0.17314397E-01 -0.11651476E-01
  0.29600047E-01  0.22304710E-01 -0.48841933E-02
  0.67850281E-02 -0.40483194E-02 -0.33767732E-02
 -0.75553714E-02  0.74945028E-02  0.98335777E-02
 -0.59708129E-03 -0.65974557E-02 -0.10599972E-01
  0.23753161E-02 -0.30141649E-02  0.19116477E-02
  0.98445126E-02  0.19872287E-01 -0.74697439E-02
 -0.98729989E-02 -0.30536154E-01 -0.14828802E-01
 -0.16435199E-02 -0.56232797E-02 -0.84929534E-02
 -0.37753166E-01  0.54197013E-03 -0.38774353E-02
  0.19110955E-01  0.80290409E-02  0.17145675E-01
 -0.20258928E-01  0.12911769E-01 -0.33551407E-02
 -0.31442712E-01 -0.28294345E-01 -0.10979551E-02
 -0.81655393E-02 -0.49794044E-02 -0.17287079E-01
 -0.15362652E-01 -0.55018939E-02  0.13288533E-01
 -0.68835027E-02 -0.94536922E-02  0.23245416E-02
  0.16578634E-01  0.81552395E-03  0.10699335E-01
 -0.15310144E-01  0.10279741E-01 -0.37900072E-04
  0.11430577E-01 -0.11402237E-01 -0.91449998E-03
  0.60093033E-02 -0.29684066E-01 -0.22018376E-01
  0.44248826E-02 -0.12953594E-01  0.22983065E-02
 -0.47281624E-02  0.53232315E-02 -0.19222021E-01
 -0.43299462E-03  0.11006732E-01  0.12200667E-01
  0.13093789E-01  0.15509705E-01  0.23905526E-01
 -0.25729079E-01  0.17597448E-01  0.37139350E-02
 -0.32299359E-01 -0.36238836E-01  0.13045782E-01
 -0.18064992E-02  0.13092884E-01  0.58205530E-03
  0.86283282E-02  0.10679339E-01 -0.18335262E-01
  0.16571635E-01  0.95973519E-02  0.39458748E-02
  0.21094767E-01 -0.15185858E-01 -0.11227520E-01
  0.74196227E-03 -0.82484902E-02 -0.24697375E-02
  0.54418431E-02  0.28546606E-01  0.11652856E-01
  0.10144788E-01 -0.18102401E-01  0.28410284E-02
 -0.57045523E-02  0.75836968E-02  0.14779115E-01
 -0.78712234E-02 -0.12483383E-01  0.87447973E-02
 -0.23233095E-01 -0.29251866E-02  0.51253596E-02
 -0.99759949E-02 -0.15075205E-01 -0.65327829E-02
 -0.19534687E-01  0.28908654E-01  0.19400309E-01
  0.42861190E-03  0.19632647E-02  0.59682257E-02
  0.46105236E-02  0.59317283E-02 -0.12085480E-01
 -0.46947012E-02  0.20147393E-01 -0.94678772E-02
  0.63420645E-02 -0.23021036E-01  0.26226948E-01
 -0.10014519E-02 -0.10899756E-01 -0.26852287E-02
 -0.22647350E-02  0.15626774E-02 -0.12626580E-01
  0.18655989E-02 -0.12293167E-01 -0.44039564E-01
  0.73898240E-02 -0.22218086E-01  0.19240852E-01
  0.55250882E-02  0.14142627E-01 -0.21992809E-02
 -0.87553291E-02  0.12267912E-01 -0.26543175E-01
 -0.34993162E-02  0.98487223E-02  0.88145318E-02
 -0.13535749E-01 -0.11146771E-02 -0.52772544E-02
 -0.16886607E-01 -0.12655477E-01 -0.50021890E-02
  0.92305745E-02  0.20036150E-01  0.65774077E-02
 -0.16968961E-01 -0.20943313E-01  0.98922182E-03
  0.10734160E-01 -0.50172168E-02 -0.25578773E-02
  0.78857565E-03  0.75050318E-02 -0.45075970E-02
  0.31529224E-02 -0.20435042E-01  0.27369841E-02
 -0.17376315E-01  0.52011414E-02  0.14933166E-01
 -0.98829145E-03 -0.23573843E-02 -0.75288416E-02
 -0.93676365E-02  0.16404034E-01 -0.90562499E-02
  0.22948947E-01 -0.10595071E-01 -0.25106288E-01
  0.16573948E-01 -0.15088062E-01 -0.18299285E-01
  0.62882924E-02 -0.23667555E-02 -0.94599273E-04
 -0.19028077E-01 -0.14542222E-01  0.22627534E-01
  0.29239362E-01  0.44669091E-02 -0.15926975E-01
  0.89390819E-02 -0.88432465E-02 -0.90316087E-02
  0.10095539E-01  0.18532385E-01  0.65397957E-02
  0.17725447E-02 -0.29973455E-02  0.60472794E-02
  0.15702134E-02  0.17695644E-01 -0.10889072E-01
 -0.18180174E-02  0.52136254E-02 -0.16712297E-01
 -0.15944440E-01 -0.85086773E-02 -0.10159711E-01
 -0.16191338E-02  0.11800941E-01 -0.43801693E-02
  0.24887847E-02  0.14828350E-02  0.19454932E-01
 -0.44313897E-02 -0.10990308E-01  0.45405399E-02
  0.26410992E-02  0.10571991E-02 -0.11002178E-01
  0.18263620E-02 -0.15753830E-01  0.88498583E-02
 -0.76834555E-02  0.12329923E-01  0.18768802E-01
  0.15227332E-01  0.23005667E-01  0.20263739E-01
  0.69569403E-02 -0.12487590E-01  0.24759316E-01
  0.29733805E-01  0.86691340E-02  0.28786396E-02
  0.18837675E-01 -0.49342594E-02 -0.27544910E-03
 -0.13697969E-01 -0.27493602E-01 -0.22809030E-01
  0.99409986E-02  0.34426545E-02  0.13123209E-01
  0.83034951E-02 -0.15525603E-01  0.44166663E-02
 -0.14151918E-02  0.18866004E-02  0.50606329E-02
 -0.13429389E-01  0.18800836E-01 -0.17547033E-02
  0.45714757E-02  0.26777435E-01  0.62847325E-02
  0.88726365E-03  0.36804843E-02 -0.83578015E-02
  0.39747564E-01 -0.14975067E-01 -0.17857358E-01
 -0.12743196E-01  0.11958747E-01  0.49628401E-02
  0.59618578E-02  0.17811521E-01 -0.82380916E-02
  0.12289167E-01  0.74633846E-02 -0.16599450E-01
  0.60388414E-02  0.11933167E-01  0.69011098E-02
 -0.90107515E-02  0.17439048E-01 -0.27434315E-02
  0.12399777E-01  0.15119659E-01 -0.22346046E-01
  0.16118537E-02  0.18709844E-01 -0.43437348E-02
 -0.11406290E-01  0.36380455E-01  0.26770733E-01
 -0.20955951E-01 -0.16716017E-01  0.12222678E-01
 -0.25118313E-01  0.19978926E-01  0.58636267E-02
  0.10506257E-01 -0.60440185E-02  0.45726321E-02
  0.33517157E-02  0.22618201E-02  0.66573476E-02
  0.12286901E-02 -0.11145189E-01 -0.23191985E-01
 -0.15387349E-02  0.12765231E-01 -0.55528242E-03
 -0.11506278E-02  0.15670135E-01  0.23217501E-02
  0.21041094E-02 -0.11767120E-01  0.23180499E-02
 -0.10045707E-01 -0.26469351E-01 -0.50847093E-02

            1
   0.5000000000000000     
  0.12288109E+01 -0.37846701E-02  0.11276757E-17  0.00000000E+00
  0.87526724E-01  0.96632667E+00  0.80441261E+00
  0.75356206E+00  0.32957548E+00  0.61672044E+00
  0.36465882E+00  0.64734734E+00  0.13219232E+00
  0.44441215E+00  0.34099283E+00  0.55355307E+00
  0.73230375E+00  0.34971360E+00  0.85332803E+00
  0.91125173E+00  0.41286276E+00  0.68872978E+00
  0.26958845E-01  0.35633182E+00  0.21079662E+00
  0.17725155E+00  0.95495576E+00  0.98492898E+00
  0.79293266E+00  0.48377351E+00  0.13708784E+00
  0.67785315E+00  0.49168621E+00  0.86501263E+00
  0.44421038E+00  0.93103614E+00  0.29042388E+00
  0.17303786E+00  0.58396073E+00  0.58394932E+00
  0.21897547E+00  0.74581320E+00  0.35223875E+00
  0.65963973E+00  0.41996857E+00  0.60227372E+00
  0.39676489E+00  0.56667107E+00  0.68669029E+00
  0.18262213E-01  0.85159869E+00  0.23136894E+00
  0.88789879E+00  0.62851098E-01  0.96540181E+00
  0.20171989E+00  0.75149948E+00  0.92031793E+00
  0.90898466E+00  0.29635994E+00  0.42817439E+00
  0.29215855E+00  0.13091173E+00  0.23175766E+00
  0.19451216E+00  0.11827814E+00  0.68842014E+00
  0.61687636E+00  0.23241090E+00  0.82153330E+00
  0.71601890E+00  0.90038747E-01  0.23677504E+00
  0.49467606E+00  0.62639881E+00  0.20133214E+00
  0.82870805E-01  0.36094387E+00  0.55222609E+00
  0.27647229E+00  0.99281086E+00  0.69025453E+00
  0.33492470E+00  0.95693069E+00  0.57690103E+00
  0.67201913E+00  0.56952628E+00  0.56797442E+00
  0.93300402E+00  0.85072951E+00  0.27559140E-01
  0.61478215E+00  0.29598642E+00  0.72723236E-01
  0.84484094E+00  0.18344608E+00  0.25972847E-01
  0.24115803E+00  0.89158859E+00  0.12992349E+00
  0.81705105E+00  0.83931839E+00  0.62962234E+00
  0.36943965E+00  0.55728107E+00  0.43603336E+00
  0.50999357E+00  0.27095330E+00  0.95621637E+00
  0.51709910E+00  0.86515725E+00  0.37756069E+00
  0.61928085E-01  0.66318245E+00  0.56508830E+00
  0.26300840E+00  0.75958654E+00  0.23510139E+00
  0.23319978E-01  0.83393530E+00  0.75447399E+00
  0.85644743E+00  0.74541945E+00  0.54462975E+00
  0.22727877E+00  0.72964583E+00  0.78057391E+00
  0.70165630E+00  0.91106139E+00  0.45846598E+00
  0.46726845E+00  0.46325013E+00  0.77267722E+00
  0.47206369E+00  0.32928651E-01  0.88861834E-01
  0.26835193E+00  0.24742266E+00  0.85266778E+00
  0.71454266E+00  0.17920660E+00  0.92673705E-01
  0.51416223E+00  0.25465207E+00  0.65725392E+00
  0.56204618E+00  0.85895034E+00  0.67753546E+00
  0.48248508E+00  0.47488999E-01  0.94404385E+00
  0.82168032E+00  0.62077715E+00  0.77969740E+00
  0.29844470E+00  0.48160562E+00  0.67525564E-02
  0.79088782E-01  0.76142335E-01  0.12898349E+00
  0.46877128E+00  0.48962467E+00  0.21875679E+00
  0.58932685E+00  0.57690775E+00  0.98331296E+00
  0.99008899E+00  0.55371556E-01  0.36977641E+00
  0.27189743E+00  0.11137762E+00  0.39031004E+00
  0.24703327E+00  0.50199057E+00  0.46070703E+00
  0.32711523E+00  0.70260013E+00  0.47682896E+00
  0.54306281E+00  0.14608562E+00  0.42270721E+00
  0.14118853E+00  0.70188733E+00  0.31672800E-01
  0.96460054E+00  0.28431217E+00  0.73872087E+00
  0.42703357E+00  0.16602967E+00  0.72880917E+00
  0.77374072E+00  0.84672466E-01  0.79103108E+00
  0.84502089E-01  0.33743858E+00  0.98041468E+00
  0.34813067E+00  0.74059159E+00  0.73484813E+00
  0.21881112E+00  0.38012876E+00  0.89893557E+00
  0.79852981E+00  0.31623102E+00  0.33493293E+00
  0.16220677E+00  0.20668987E+00  0.10450441E+00
  0.48120120E-01  0.57250972E+00  0.87472436E+00
  0.25543978E+00  0.41417663E+00  0.25389370E+00
  0.48856539E+00  0.37836191E+00  0.14230411E+00
  0.89628457E+00  0.53521356E+00  0.39260630E+00
  0.73456642E+00  0.72594394E+00  0.29243523E+00
  0.29764386E+00  0.22330465E+00  0.69737953E+00
  0.76573363E+00  0.60064075E+00  0.35609468E+00
  0.76097990E+00  0.71433719E+00  0.85232673E+00
  0.60236592E+00  0.99118984E+00  0.93284385E+00
  0.85585955E+00  0.63618152E+00  0.47513147E-01
  0.78086556E+00  0.85467009E+00  0.77115270E+00
  0.78015030E+00  0.10893629E+00  0.66243776E+00
  0.63139206E+00  0.54163285E+00  0.39339449E+00
  0.75711332E+00  0.35870895E-01  0.46358905E+00
  0.96364284E+00  0.11414542E+00  0.23932238E+00
  0.40122329E-01  0.49281603E+00  0.18097260E+00
  0.98949035E+00  0.60929843E+00  0.33757449E+00
  0.80358817E+00  0.35010132E+00  0.20163650E+00
  0.53006839E-01  0.99542201E+00  0.52569571E+00
  0.46346741E+00  0.76741245E+00  0.46796384E+00
  0.46012032E-01  0.25121771E+00  0.62833458E+00
  0.18163728E+00  0.52999474E+00  0.22218239E+00
  0.78907766E+00  0.84609958E+00  0.33775301E+00
  0.24846808E+00  0.51827293E+00  0.69152290E+00
  0.65436133E+00  0.81281458E+00  0.70563718E-01
  0.99462285E+00  0.28779166E+00  0.88838376E+00
  0.76077555E-01  0.69089114E+00  0.41341164E+00
  0.57880440E+00  0.71119418E+00  0.92331281E+00
  0.83895477E+00  0.29980241E+00  0.95062563E+00
  0.30780765E+00  0.96710759E+00  0.89412520E+00
  0.12160772E+00  0.79790096E+00  0.65681036E+00
  0.82394360E+00  0.61336851E+00  0.62032657E+00
  0.56504868E+00  0.74686524E+00  0.58339908E+00
  0.23865913E+00  0.98949610E+00  0.46052812E+00
  0.52725794E+00  0.87900805E+00  0.13830585E+00
  0.18238010E+00  0.45370926E+00  0.79522324E+00
  0.49066037E+00  0.28825251E+00  0.43145881E+00
  0.94969975E+00  0.50547352E+00  0.79505110E+00
  0.12231916E+00  0.25694096E+00  0.23281438E+00
  0.59760177E+00  0.15824066E+00  0.29337502E+00
  0.71197142E+00  0.17350476E+00  0.56825428E+00
  0.51261350E+00  0.40579621E-01  0.52738111E+00
  0.82146092E-01  0.54506637E+00  0.18124468E-01
  0.19306773E+00  0.22219828E+00  0.43291081E+00
  0.83196527E+00  0.95373477E+00  0.54170437E-01
  0.84355170E+00  0.75370971E+00  0.94328507E-01
  0.15937388E+00  0.96488977E+00  0.21910687E+00
  0.99565613E+00  0.11347276E+00  0.58489006E+00
  0.92596825E+00  0.90823120E+00  0.32915772E+00
  0.24964405E+00  0.35232309E+00  0.50143498E+00
  0.69705516E+00  0.56677941E+00  0.11675967E+00
  0.41431723E+00  0.14190477E+00  0.18387473E+00
  0.58563231E+00  0.53083894E+00  0.76501497E+00
  0.35389385E-02  0.39460327E+00  0.43605610E+00
  0.56778071E+00  0.98494551E+00  0.66473454E+00
  0.36533197E+00  0.57849267E+00  0.94054730E+00
  0.61577723E+00  0.38064303E+00  0.35001298E+00
  0.98364175E+00  0.63710833E-01  0.86832464E+00
  0.28464339E+00  0.13150675E+00  0.94852424E+00
  0.43127522E+00  0.80593515E+00  0.84070419E+00
  0.17817232E-02 -0.36321866E-03  0.17562775E-03
 -0.32869212E-03 -0.84359484E-03 -0.30512421E-04
  0.43307088E-03  0.14523087E-02  0.85848128E-03
 -0.18241099E-02  0.31088407E-03 -0.46742143E-03
 -0.17596569E-03 -0.10485258E-03 -0.31282793E-03
 -0.95252181E-03  0.76365867E-04 -0.11992983E-02
 -0.70264860E-03  0.11788299E-02 -0.16322223E-03
  0.35071762E-03  0.47663289E-03  0.17478661E-03
  0.10830829E-02  0.30460114E-03  0.83255145E-03
  0.72983941E-03 -0.13127130E-03  0.10192023E-02
 -0.52354907E-03 -0.38730220E-03  0.17947614E-02
 -0.33415149E-04 -0.87884918E-03  0.14326478E-02
 -0.74772377E-04  0.98358581E-03 -0.30982058E-03
  0.15683685E-03 -0.44456390E-03  0.58745891E-03
 -0.82582722E-04 -0.70793082E-03 -0.64579882E-03
 -0.92991706E-03 -0.13758799E-02  0.53145554E-04
  0.95595843E-03  0.32317981E-03  0.24759383E-03
 -0.57909816E-03 -0.49307461E-03 -0.60161271E-03
  0.10411797E-02 -0.50900720E-03 -0.86178952E-03
  0.10805230E-03 -0.11150761E-02  0.36607760E-03
  0.18946327E-03 -0.91128960E-03 -0.27774909E-03
  0.13156459E-02  0.16233894E-02  0.18692147E-02
  0.66604884E-04 -0.68011108E-03 -0.96965326E-03
 -0.49225075E-03 -0.10211384E-02 -0.65986105E-03
  0.16498056E-02  0.12085409E-02 -0.28164750E-03
  0.39569259E-03 -0.24313969E-03 -0.21723962E-03
 -0.43320385E-03  0.44226096E-03  0.60761009E-03
 -0.47861429E-04 -0.34230723E-03 -0.60623567E-03
  0.14249430E-03 -0.16828283E-03  0.93855349E-04
  0.57233505E-03  0.11218932E-02 -0.38897550E-03
 -0.54517738E-03 -0.17183392E-02 -0.87562252E-03
 -0.11869415E-03 -0.31683590E-03 -0.48003297E-03
 -0.21404793E-02 -0.47072467E-04 -0.28173651E-03
  0.10395017E-02  0.42047620E-03  0.96877808E-03
 -0.11738995E-02  0.72900199E-03 -0.16994704E-03
 -0.17844862E-02 -0.15737340E-02 -0.82400554E-04
 -0.43847552E-03 -0.31578107E-03 -0.98900285E-03
 -0.91822578E-03 -0.31780247E-03  0.84365528E-03
 -0.37591508E-03 -0.57442305E-03  0.11620393E-03
  0.93665440E-03  0.92586229E-04  0.59613011E-03
 -0.76483173E-03  0.60429713E-03 -0.10120891E-04
  0.62739637E-03 -0.66105725E-03 -0.26024668E-04
  0.40008857E-03 -0.16854507E-02 -0.12415730E-02
  0.26443324E-03 -0.72673676E-03  0.99757400E-04
 -0.27874492E-03  0.32486069E-03 -0.11093664E-02
  0.13076066E-04  0.67065382E-03  0.64408862E-03
  0.74612242E-03  0.88463987E-03  0.13249885E-02
 -0.14527351E-02  0.10935452E-02  0.19010272E-03
 -0.18375274E-02 -0.20505839E-02  0.71629740E-03
 -0.14269030E-03  0.76621183E-03  0.97734035E-04
  0.47192178E-03  0.62873732E-03 -0.10494107E-02
  0.95839500E-03  0.56383717E-03  0.23100814E-03
  0.11865615E-02 -0.79608219E-03 -0.62589384E-03
  0.37930902E-04 -0.45227637E-03 -0.14587762E-03
  0.34565529E-03  0.16389941E-02  0.69767121E-03
  0.53670255E-03 -0.10320828E-02  0.15901303E-03
 -0.27091354E-03  0.46706080E-03  0.83076169E-03
 -0.47553728E-03 -0.71255565E-03  0.51261908E-03
 -0.12942608E-02 -0.14960054E-03  0.26268145E-03
 -0.53256447E-03 -0.82046724E-03 -0.39093292E-03
 -0.10833386E-02  0.16239694E-02  0.10646533E-02
 -0.44371514E-05  0.11478441E-03  0.35450114E-03
  0.28164122E-03  0.33113097E-03 -0.65182839E-03
 -0.26279608E-03  0.11418297E-02 -0.55240377E-03
  0.23471366E-03 -0.13334359E-02  0.14886166E-02
 -0.97543124E-04 -0.56659789E-03 -0.20114502E-03
 -0.13308055E-03  0.88888583E-04 -0.74504919E-03
  0.88589774E-04 -0.65035400E-03 -0.24571187E-02
  0.42656987E-03 -0.12569337E-02  0.10971477E-02
  0.31008215E-03  0.78309401E-03 -0.11055825E-03
 -0.47271842E-03  0.69821957E-03 -0.15065022E-02
 -0.12730339E-03  0.55806717E-03  0.45927631E-03
 -0.76034029E-03 -0.62150279E-04 -0.28328308E-03
 -0.91135412E-03 -0.73997763E-03 -0.32353141E-03
  0.55597122E-03  0.11420310E-02  0.37575806E-03
 -0.96939419E-03 -0.12625570E-02  0.68674863E-04
  0.55891107E-03 -0.25867543E-03 -0.84388599E-04
  0.31269587E-04  0.48318373E-03 -0.20673099E-03
  0.18822317E-03 -0.11336447E-02  0.16124668E-03
 -0.10310369E-02  0.34843249E-03  0.78483627E-03
 -0.67852143E-04 -0.11379913E-03 -0.43867737E-03
 -0.54350533E-03  0.90795842E-03 -0.49624783E-03
  0.12912990E-02 -0.61481213E-03 -0.14184266E-02
  0.92692977E-03 -0.83260204E-03 -0.10407043E-02
  0.32726922E-03 -0.20770954E-03  0.62757855E-04
 -0.10909949E-02 -0.84598808E-03  0.12884413E-02
  0.16580461E-02  0.22115607E-03 -0.89966134E-03
  0.46791954E-03 -0.51206120E-03 -0.52522656E-03
  0.56461256E-03  0.11139192E-02  0.37585160E-03
  0.72864319E-04 -0.12524680E-03  0.32182258E-03
  0.93192474E-04  0.97292569E-03 -0.62961215E-03
 -0.13036591E-03  0.27608811E-03 -0.92310156E-03
 -0.83609080E-03 -0.51024193E-03 -0.58503616E-03
 -0.66144560E-04  0.66439555E-03 -0.24122616E-03
  0.12901909E-03  0.52846666E-04  0.10818629E-02
 -0.26692887E-03 -0.61527328E-03  0.24771342E-03
  0.11251492E-03 -0.28803468E-04 -0.56399961E-03
  0.11545512E-03 -0.92659186E-03  0.48456099E-03
 -0.42802486E-03  0.70073343E-03  0.10663171E-02
  0.89419031E-03  0.13192591E-02  0.11606777E-02
  0.43197863E-03 -0.71984924E-03  0.13980386E-02
  0.16779229E-02  0.51456604E-03  0.18183691E-03
  0.10629191E-02 -0.30056969E-03 -0.14147217E-05
 -0.72928428E-03 -0.15840027E-02 -0.12147822E-02
  0.57396517E-03  0.16180795E-03  0.76486099E-03
  0.51254071E-03 -0.92487198E-03  0.22289572E-03
 -0.78785740E-04  0.18746608E-04  0.24134513E-03
 -0.78601722E-03  0.10872146E-02 -0.68602232E-04
  0.27153607E-03  0.14929062E-02  0.40754054E-03
  0.81111693E-04  0.19924094E-03 -0.44609041E-03
  0.22437092E-02 -0.89659909E-03 -0.97232535E-03
 -0.71611080E-03  0.65679514E-03  0.26206739E-03
  0.30934580E-03  0.95650371E-03 -0.43505518E-03
  0.65995370E-03  0.39492440E-03 -0.97538805E-03
  0.38903088E-03  0.66467863E-03  0.38175003E-03
 -0.49552016E-03  0.10136267E-02 -0.17041620E-03
  0.67075835E-03  0.87949370E-03 -0.12402250E-02
  0.12331293E-03  0.10754698E-02 -0.24099132E-03
 -0.53118006E-03  0.19691955E-02  0.15334100E-02
 -0.12238276E-02 -0.94215030E-03  0.73541906E-03
 -0.14452289E-02  0.11173940E-02  0.35289975E-03
  0.55316753E-03 -0.33217497E-03  0.24786135E-03
  0.18154392E-03  0.26361791E-04  0.38563199E-03
  0.71369390E-04 -0.61696682E-03 -0.13241145E-02
 -0.10014451E-03  0.69891796E-03 -0.58946408E-04
 -0.10728509E-03  0.90185467E-03  0.17075123E-03
  0.13280061E-03 -0.68181452E-03  0.15094175E-03
 -0.59081182E-03 -0.14917597E-02 -0.28205339E-03
  0.00000000E+00  0.00000000E+00  0.00000000E+00
  0.00000000E+00  0.00000000E+00  0.00000000E+00
  0.00000000E+00  0.00000000E+00  0.00000000E+00
  0.00000000E+00  0.00000000E+00  0.00000000E+00
  0.00000000E+00  0.00000000E+00  0.00000000E+00
  0.00000000E+00  0.00000000E+00  0.00000000E+00
  0.00000000E+00  0.00000000E+00  0.00000000E+00
  0.00000000E+00  0.00000000E+00  0.00000000E+00
  0.00000000E+00  0.00000000E+00  0.00000000E+00
  0.00000000E+00  0.00000000E+00  0.00000000E+00
  0.00000000E+00  0.00000000E+00  0.00000000E+00
  0.00000000E+00  0.00000000E+00  0.00000000E+00
  0.00000000E+00  0.00000000E+00  0.00000000E+00
  0.00000000E+00  0.00000000E+00  0.00000000E+00
  0.00000000E+00  0.00000000E+00  0.00000000E+00
  0.00000000E+00  0.00000000E+00  0.00000000E+00
  0.00000000E+00  0.00000000E+00  0.00000000E+00
  0.00000000E+00  0.00000000E+00  0.00000000E+00
  0.00000000E+00  0.00000000E+00  0.00000000E+00
  0.00000000E+00  0.00000000E+00  0.00000000E+00
  0.00000000E+00  0.00000000E+00  0.00000000E+00
  0.00000000E+00  0.00000000E+00  0.00000000E+00
  0.00000000E+00  0.00000000E+00  0.00000000E+00
  0.00000000E+00  0.00000000E+00  0.00000000E+00
  0.00000000E+00  0.00000000E+00  0.00000000E+00
  0.00000000E+00  0.00000000E+00  0.00000000E+00
  0.00000000E+00  0.00000000E+00  0.00000000E+00
  0.00000000E+00  0.00000000E+00  0.00000000E+00
  0.00000000E+00  0.00000000E+00  0.00000000E+00
  0.00000000E+00  0.00000000E+00  0.00000000E+00
  0.00000000E+00  0.00000000E+00  0.00000000E+00
  0.00000000E+00  0.00000000E+00  0.00000000E+00
  0.00000000E+00  0.00000000E+00  0.00000000E+00
  0.00000000E+00  0.00000000E+00  0.00000000E+00
  0.00000000E+00  0.00000000E+00  0.00000000E+00
  0.00000000E+00  0.00000000E+00  0.00000000E+00
  0.00000000E+00  0.00000000E+00  0.00000000E+00
  0.00000000E+00  0.00000000E+00  0.00000000E+00
  0.00000000E+00  0.00000000E+00  0.00000000E+00
  0.00000000E+00  0.00000000E+00  0.00000000E+00
  0.00000000E+00  0.00000000E+00  0.00000000E+00
  0.00000000E+00  0.00000000E+00  0.00000000E+00
  0.00000000E+00  0.00000000E+00  0.00000000E+00
  0.00000000E+00  0.00000000E+00  0.00000000E+00
  0.00000000E+00  0.00000000E+00  0.00000000E+00
  0.00000000E+00  0.00000000E+00  0.00000000E+00
  0.00000000E+00  0.00000000E+00  0.00000000E+00
  0.00000000E+00  0.00000000E+00  0.00000000E+00
  0.00000000E+00  0.00000000E+00  0.00000000E+00
  0.00000000E+00  0.00000000E+00  0.00000000E+00
  0.00000000E+00  0.00000000E+00  0.00000000E+00
  0.00000000E+00  0.00000000E+00  0.00000000E+00
  0.00000000E+00  0.00000000E+00  0.00000000E+00
  0.00000000E+00  0.00000000E+00  0.00000000E+00
  0.00000000E+00  0.00000000E+00  0.00000000E+00
  0.00000000E+00  0.00000000E+00  0.00000000E+00
  0.00000000E+00  0.00000000E+00  0.00000000E+00
  0.00000000E+00  0.00000000E+00  0.00000000E+00
  0.00000000E+00  0.00000000E+00  0.00000000E+00
  0.00000000E+00  0.00000000E+00  0.00000000E+00