 &inputpp
   outdir = './tmp/' ,
   prefix = 'N' ,
 /
